\ Model Staff Scheduling Problem
\ LP format - for model browsing. Use MPS format to capture full model detail.
Minimize
  48.15010506139282 x[0,0] + 48.15010506139282 x[0,1]
   + 48.15010506139282 x[0,2] + 48.15010506139282 x[0,3]
   + 48.15010506139282 x[0,4] + 17.05362950091861 x[1,0]
   + 17.05362950091861 x[1,1] + 17.05362950091861 x[1,2]
   + 17.05362950091861 x[1,3] + 17.05362950091861 x[1,4]
   + 47.84870445980515 x[2,0] + 47.84870445980515 x[2,1]
   + 47.84870445980515 x[2,2] + 47.84870445980515 x[2,3]
   + 47.84870445980515 x[2,4] + 15.05961539024737 x[3,0]
   + 15.05961539024737 x[3,1] + 15.05961539024737 x[3,2]
   + 15.05961539024737 x[3,3] + 15.05961539024737 x[3,4]
   + 48.15421798213458 x[4,0] + 48.15421798213458 x[4,1]
   + 48.15421798213458 x[4,2] + 48.15421798213458 x[4,3]
   + 48.15421798213458 x[4,4] + 14.09445776824971 x[5,0]
   + 14.09445776824971 x[5,1] + 14.09445776824971 x[5,2]
   + 14.09445776824971 x[5,3] + 14.09445776824971 x[5,4]
   + 46.79155174519945 x[6,0] + 46.79155174519945 x[6,1]
   + 46.79155174519945 x[6,2] + 46.79155174519945 x[6,3]
   + 46.79155174519945 x[6,4] + 18.59176667072964 x[7,0]
   + 18.59176667072964 x[7,1] + 18.59176667072964 x[7,2]
   + 18.59176667072964 x[7,3] + 18.59176667072964 x[7,4]
   + 36.56625522406556 x[8,0] + 36.56625522406556 x[8,1]
   + 36.56625522406556 x[8,2] + 36.56625522406556 x[8,3]
   + 36.56625522406556 x[8,4] + 26.99685122405922 x[9,0]
   + 26.99685122405922 x[9,1] + 26.99685122405922 x[9,2]
   + 26.99685122405922 x[9,3] + 26.99685122405922 x[9,4]
   + 42.46253690477734 x[10,0] + 42.46253690477734 x[10,1]
   + 42.46253690477734 x[10,2] + 42.46253690477734 x[10,3]
   + 42.46253690477734 x[10,4]
Subject To
 shift_0_requirement: x[0,0] + x[1,0] + x[2,0] + x[3,0] + x[4,0] + x[5,0]
   + x[6,0] + x[7,0] + x[8,0] + x[9,0] + x[10,0] >= 7.052646085377069
 shift_1_requirement: x[0,1] + x[1,1] + x[2,1] + x[3,1] + x[4,1] + x[5,1]
   + x[6,1] + x[7,1] + x[8,1] + x[9,1] + x[10,1] >= 7.426798385686693
 shift_2_requirement: x[0,2] + x[1,2] + x[2,2] + x[3,2] + x[4,2] + x[5,2]
   + x[6,2] + x[7,2] + x[8,2] + x[9,2] + x[10,2] >= 7.710388444817633
 shift_3_requirement: x[0,3] + x[1,3] + x[2,3] + x[3,3] + x[4,3] + x[5,3]
   + x[6,3] + x[7,3] + x[8,3] + x[9,3] + x[10,3] >= 1.02523145560411
 shift_4_requirement: x[0,4] + x[1,4] + x[2,4] + x[3,4] + x[4,4] + x[5,4]
   + x[6,4] + x[7,4] + x[8,4] + x[9,4] + x[10,4] >= 8.665539147109939
 availability_0_0: x[0,0] <= 2.197658877692494
 availability_0_1: x[0,1] <= 5.953413873632416
 availability_0_2: x[0,2] <= 5.857277802731644
 availability_0_3: x[0,3] <= 6.886772621342718
 availability_0_4: x[0,4] <= 0.8846524089394281
 availability_1_0: x[1,0] <= 1.691470768234707
 availability_1_1: x[1,1] <= 3.045704679543787
 availability_1_2: x[1,2] <= 3.044165918325787
 availability_1_3: x[1,3] <= 3.851219524975762
 availability_1_4: x[1,4] <= 4.864160226608538
 availability_2_0: x[2,0] <= 2.754450333744951
 availability_2_1: x[2,1] <= 1.917879569536143
 availability_2_2: x[2,2] <= 1.831053891988508
 availability_2_3: x[2,3] <= 0.2287899618382339
 availability_2_4: x[2,4] <= 0.8216689468409371
 availability_3_0: x[3,0] <= 0.3720285690063223
 availability_3_1: x[3,1] <= 5.737526833469976
 availability_3_2: x[3,2] <= 0.5378155777793934
 availability_3_3: x[3,3] <= 4.112897883886154
 availability_3_4: x[3,4] <= 7.416843050030265
 availability_4_0: x[4,0] <= 4.783486428451722
 availability_4_1: x[4,1] <= 1.024769692774324
 availability_4_2: x[4,2] <= 0.1842630418704285
 availability_4_3: x[4,3] <= 0.6616100414231036
 availability_4_4: x[4,4] <= 7.194644847535771
 availability_5_0: x[5,0] <= 7.713765244189335
 availability_5_1: x[5,1] <= 0.4858871325624659
 availability_5_2: x[5,2] <= 6.304946531383022
 availability_5_3: x[5,3] <= 0.898681402887302
 availability_5_4: x[5,4] <= 2.032993940882605
 availability_6_0: x[6,0] <= 1.741184013153529
 availability_6_1: x[6,1] <= 1.108166494970214
 availability_6_2: x[6,2] <= 7.410347261659331
 availability_6_3: x[6,3] <= 2.117416551776453
 availability_6_4: x[6,4] <= 5.313088645368684
 availability_7_0: x[7,0] <= 4.69745812482452
 availability_7_1: x[7,1] <= 0.4826435446057511
 availability_7_2: x[7,2] <= 1.478309847454391
 availability_7_3: x[7,3] <= 6.431683532465237
 availability_7_4: x[7,4] <= 4.650200993285178
 availability_8_0: x[8,0] <= 1.861845392419288
 availability_8_1: x[8,1] <= 3.075718203323366
 availability_8_2: x[8,2] <= 7.246219368369517
 availability_8_3: x[8,3] <= 1.762380314312639
 availability_8_4: x[8,4] <= 2.351121091529697
 availability_9_0: x[9,0] <= 0.248297815721263
 availability_9_1: x[9,1] <= 2.601874584527813
 availability_9_2: x[9,2] <= 7.80589819586134
 availability_9_3: x[9,3] <= 2.726977765963792
 availability_9_4: x[9,4] <= 4.354662871384096
 availability_10_0: x[10,0] <= 2.657559262273349
 availability_10_1: x[10,1] <= 1.38235526021189
 availability_10_2: x[10,2] <= 7.863709343915707
 availability_10_3: x[10,3] <= 4.647344387452257
 availability_10_4: x[10,4] <= 3.447345872049319
Bounds
End
